100 500 200 500 10 100
40 388
72 399
15 274
93 457
56 416
56 258
81 379
32 285
63 481
11 378
100 322
29 313
64 297
21 496
13 493
57 470
52 380
47 315
93 213
27 241
82 231
53 375
60 224
33 256
90 456
73 469
68 333
31 350
83 264
10 426
77 423
28 385
56 212
40 204
74 470
50 301
83 294
70 360
31 384
35 220
80 299
26 365
52 469
70 312
96 308
73 237
97 381
54 230
72 320
55 316
94 479
17 488
88 341
89 289
33 213
45 262
75 497
14 494
24 391
14 395
60 342
45 377
85 251
62 314
36 391
18 358
65 245
22 391
94 443
40 310
77 487
46 216
90 248
31 345
77 264
40 286
28 420
100 328
26 370
76 291
85 219
89 379
63 244
17 452
64 447
90 391
75 382
99 365
76 315
85 217
71 249
42 235
52 214
18 390
18 452
91 344
30 379
58 486
42 491
93 358
